(set-logic QF_BV)
(declare-fun x0 () (_ BitVec 32))
(declare-fun x1 () (_ BitVec 32))
(declare-fun x2 () (_ BitVec 16))
(declare-fun x3 () Bool)
(declare-fun x4 () Bool)
(declare-fun x5 () (_ BitVec 32))
(declare-fun x6 () (_ BitVec 32))
(declare-fun x7 () Bool)
(declare-fun x8 () Bool)
(declare-fun x9 () (_ BitVec 32))
(declare-fun x10 () Bool)
(declare-fun x11 () (_ BitVec 32))
(declare-fun x12 () (_ BitVec 32))
(declare-fun x13 () (_ BitVec 32))
(declare-fun x14 () (_ BitVec 32))
(declare-fun x15 () Bool)
(declare-fun x16 () (_ BitVec 32))
(declare-fun x17 () (_ BitVec 32))
(declare-fun x18 () Bool)
(declare-fun x19 () Bool)
(declare-fun x20 () Bool)
(declare-fun x21 () (_ BitVec 16))
(declare-fun x22 () (_ BitVec 32))
(declare-fun x23 () Bool)
(declare-fun x24 () (_ BitVec 32))
(declare-fun x25 () (_ BitVec 32))
(declare-fun x26 () (_ BitVec 32))
(declare-fun x27 () (_ BitVec 32))
(declare-fun x28 () Bool)
(declare-fun x29 () (_ BitVec 32))
(declare-fun x30 () (_ BitVec 32))
(declare-fun x31 () (_ BitVec 16))
(declare-fun x32 () (_ BitVec 32))
(declare-fun x33 () (_ BitVec 32))
(declare-fun x34 () (_ BitVec 8))
(declare-fun x35 () Bool)
(declare-fun x36 () (_ BitVec 32))
(declare-fun x37 () (_ BitVec 32))
(declare-fun x38 () (_ BitVec 32))
(declare-fun x39 () (_ BitVec 32))
(declare-fun x40 () (_ BitVec 32))
(declare-fun x41 () (_ BitVec 8))
(declare-fun x42 () Bool)
(declare-fun x43 () (_ BitVec 32))
(declare-fun x44 () (_ BitVec 32))
(declare-fun x45 () (_ BitVec 32))
(declare-fun x46 () Bool)
(declare-fun x47 () Bool)
(declare-fun x48 () (_ BitVec 32))
(declare-fun x49 () (_ BitVec 32))
(declare-fun x50 () Bool)
(declare-fun x51 () (_ BitVec 32))
(declare-fun x52 () (_ BitVec 32))
(declare-fun x53 () (_ BitVec 32))
(declare-fun x54 () (_ BitVec 32))
(declare-fun x55 () (_ BitVec 32))
(declare-fun x56 () (_ BitVec 32))
(declare-fun x57 () (_ BitVec 32))
(declare-fun x58 () (_ BitVec 32))
(declare-fun x59 () Bool)
(declare-fun x60 () Bool)
(declare-fun x61 () (_ BitVec 32))
(declare-fun x62 () (_ BitVec 16))
(declare-fun x63 () Bool)
(declare-fun x64 () Bool)
(declare-fun x65 () (_ BitVec 32))
(declare-fun x66 () Bool)
(declare-fun x67 () (_ BitVec 32))
(declare-fun x68 () (_ BitVec 32))
(declare-fun x69 () Bool)
(declare-fun x70 () (_ BitVec 8))
(declare-fun x71 () (_ BitVec 32))
(declare-fun x72 () Bool)
(declare-fun x73 () Bool)
(declare-fun x74 () (_ BitVec 32))
(declare-fun x75 () Bool)
(declare-fun x76 () (_ BitVec 32))
(declare-fun x77 () (_ BitVec 32))
(declare-fun x78 () (_ BitVec 32))
(declare-fun x79 () Bool)
(declare-fun x80 () Bool)
(declare-fun x81 () (_ BitVec 32))
(declare-fun x82 () Bool)
(declare-fun x83 () (_ BitVec 32))
(declare-fun x84 () (_ BitVec 8))
(declare-fun x85 () (_ BitVec 32))
(declare-fun x86 () (_ BitVec 32))
(declare-fun x87 () (_ BitVec 32))
(declare-fun x88 () (_ BitVec 32))
(declare-fun x89 () (_ BitVec 16))
(declare-fun x90 () Bool)
(declare-fun x91 () (_ BitVec 8))
(declare-fun x92 () (_ BitVec 8))
(assert (let ( (?v_278 ((_ zero_extend 24) x41))) (let ((?v_284 (bvadd (_ bv0 32) ?v_278))) (let ((?v_294 (bvadd (bvadd ?v_284 (_ bv0 32)) x48))) (let ((?v_305 (bvadd (bvadd ?v_294 (_ bv0 32)) (_ bv0 32)))) (let ((?v_315 (bvadd (bvadd ?v_305 (_ bv0 32)) (_ bv0 32)))) (let ((?v_330 (bvadd (bvadd ?v_315 (_ bv0 32)) (_ bv0 32)))) (let ( (?v_331 (bvsub ?v_330 (_ bv4268231 32)))) (and true x72 true x7 true x46 true x23 true x42 true (bvule (_ bv5 32) x27) true x80 true x47 true (bvslt (_ bv0 32) x85) true x3 x35 x8 true x18 true x73 true x28 x75 true x15 x90 true x60 x63 x10 x4 x64 x20 true x66 true x19 true x79 true x69 true x59 true x50 true x82 true (bvule x17 x37) true (bvule ?v_331 (_ bv0 32)) true)))))))))
(check-sat)
(exit)
